LP_formatter/src.lp
Minimize
 obj:  200 X1 + 400 X2 + 900 X3 + 300 X4 + 100 X5 + 300 X6 + 200 X7 
Subject To
 c1:  X1 + X2 + X3 = 50
 c2: - X1 + X4 = 40
 c3: - X2 - X4 + X5 = 0
 c4: - X3 + X6 - X7  = - 30
 c5: - X5 - X6 + X7 = - 60
Bounds
0 <= X1 <= 10
0 <= X2
0 <= X3
0 <= X4
0 <= X5 <= 80
0 <= X6
0 <= X7
END