LP_formatter/src.txt
 obj: 3x1 x2